c This Formular is generated by mcnf
c
c    horn? no 
c    forced? no 
c    mixed sat? no 
c    clause length = 3 
c
p cnf 20  91 
 6 5 -4 0
2 1 -5 0
-14 9 7 0
10 -15 -20 0
-3 -14 -11 0
2 4 -20 0
-8 -10 17 0
-11 19 17 0
-7 -18 -6 0
-20 7 6 0
18 -10 -1 0
12 -9 -10 0
-19 17 -14 0
2 3 15 0
3 -1 15 0
-11 -15 10 0
-4 -10 -16 0
10 -16 -11 0
-1 14 -19 0
-3 -4 -20 0
17 -3 12 0
%
0

30 72 42 74 99 100 2 88 12 11 78 72 48 8 43 97 6 50 32 77
